MARKOV
233
 2 2 2 2 2 2 2 2 2 2 2 2 2 2 2 2 2 2 2 2 2 2 2 2 2 2 2 2 2 2 2 2 2 2 2 2 2 2 2 2 2 2 2 2 2 2 2 2 2 2 2 2 2 2 2 2 2 2 2 2 2 2 2 2 2 2 2 2 2 2 2 2 2 2 2 2 2 2 2 2 2 2 2 2 2 2 2 2 2 2 2 2 2 2 2 2 2 2 2 2 2 2 2 2 2 2 2 2 2 2 2 2 2 2 2 2 2 2 2 2 2 2 2 2 2 2 2 2 2 2 2 2 2 2 2 2 2 2 2 2 2 2 2 2 2 2 2 2 2 2 2 2 2 2 2 2 2 2 2 2 2 2 2 2 2 2 2 2 2 2 2 2 2 2 2 2 2 2 2 2 2 2 2 2 2 2 2 2 2 2 2 2 2 2 2 2 2 2 2 2 2 2 2 2 2 2 2 2 2 2 2 2 2 2 2 2 2 2 2 2 2 2 2 2 2 2 2 2 2 2 2 2 2
862
1	0 
1	1 
1	2 
1	3 
1	4 
1	5 
1	6 
1	7 
1	8 
1	9 
1	10 
1	11 
1	12 
1	13 
1	14 
1	15 
1	16 
1	17 
1	18 
1	19 
1	20 
1	21 
1	22 
1	23 
1	24 
1	25 
1	26 
1	27 
1	28 
1	29 
1	30 
1	31 
1	32 
1	33 
1	34 
1	35 
1	36 
1	37 
1	38 
1	39 
1	40 
1	41 
1	42 
1	43 
1	44 
1	45 
1	46 
1	47 
1	48 
1	49 
1	50 
1	51 
1	52 
1	53 
1	54 
1	55 
1	56 
1	57 
1	58 
1	59 
1	60 
1	61 
1	62 
1	63 
1	64 
1	65 
1	66 
1	67 
1	68 
1	69 
1	70 
1	71 
1	72 
1	73 
1	74 
1	75 
1	76 
1	77 
1	78 
1	79 
1	80 
1	81 
1	82 
1	83 
1	84 
1	85 
1	86 
1	87 
1	88 
1	89 
1	90 
1	91 
1	92 
1	93 
1	94 
1	95 
1	96 
1	97 
1	98 
1	99 
1	100 
1	101 
1	102 
1	103 
1	104 
1	105 
1	106 
1	107 
1	108 
1	109 
1	110 
1	111 
1	112 
1	113 
1	114 
1	115 
1	116 
1	117 
1	118 
1	119 
1	120 
1	121 
1	122 
1	123 
1	124 
1	125 
1	126 
1	127 
1	128 
1	129 
1	130 
1	131 
1	132 
1	133 
1	134 
1	135 
1	136 
1	137 
1	138 
1	139 
1	140 
1	141 
1	142 
1	143 
1	144 
1	145 
1	146 
1	147 
1	148 
1	149 
1	150 
1	151 
1	152 
1	153 
1	154 
1	155 
1	156 
1	157 
1	158 
1	159 
1	160 
1	161 
1	162 
1	163 
1	164 
1	165 
1	166 
1	167 
1	168 
1	169 
1	170 
1	171 
1	172 
1	173 
1	174 
1	175 
1	176 
1	177 
1	178 
1	179 
1	180 
1	181 
1	182 
1	183 
1	184 
1	185 
1	186 
1	187 
1	188 
1	189 
1	190 
1	191 
1	192 
1	193 
1	194 
1	195 
1	196 
1	197 
1	198 
1	199 
1	200 
1	201 
1	202 
1	203 
1	204 
1	205 
1	206 
1	207 
1	208 
1	209 
1	210 
1	211 
1	212 
1	213 
1	214 
1	215 
1	216 
1	217 
1	218 
1	219 
1	220 
1	221 
1	222 
1	223 
1	224 
1	225 
1	226 
1	227 
1	228 
1	229 
1	230 
1	231 
1	232 
2	1 3 
2	1 5 
2	1 26 
2	1 128 
2	1 156 
2	1 215 
2	2 3 
2	2 4 
2	2 5 
2	2 25 
2	2 28 
2	3 4 
2	3 5 
2	3 122 
2	3 156 
2	4 28 
2	4 122 
2	4 123 
2	4 124 
2	5 25 
2	5 26 
2	6 7 
2	6 9 
2	6 63 
2	6 64 
2	7 8 
2	7 9 
2	8 9 
2	8 183 
2	8 184 
2	9 64 
2	9 98 
2	9 99 
2	9 184 
2	10 11 
2	10 12 
2	10 14 
2	10 110 
2	10 199 
2	10 200 
2	10 201 
2	11 12 
2	11 14 
2	11 177 
2	11 180 
2	12 179 
2	12 180 
2	12 199 
2	13 14 
2	13 22 
2	13 112 
2	13 113 
2	13 177 
2	13 207 
2	13 210 
2	14 110 
2	14 112 
2	14 177 
2	15 19 
2	15 36 
2	15 150 
2	16 17 
2	16 30 
2	16 127 
2	16 170 
2	16 171 
2	17 18 
2	17 127 
2	17 152 
2	18 19 
2	18 151 
2	18 152 
2	19 150 
2	19 151 
2	20 21 
2	20 22 
2	20 23 
2	20 51 
2	20 144 
2	20 153 
2	21 22 
2	21 51 
2	21 118 
2	21 205 
2	22 23 
2	22 113 
2	22 205 
2	22 207 
2	23 113 
2	23 142 
2	23 144 
2	24 25 
2	24 27 
2	24 29 
2	24 38 
2	24 87 
2	24 125 
2	25 26 
2	25 27 
2	25 28 
2	25 38 
2	25 120 
2	26 27 
2	26 82 
2	26 89 
2	26 215 
2	27 87 
2	27 89 
2	28 120 
2	28 121 
2	29 87 
2	29 90 
2	29 125 
2	29 126 
2	30 33 
2	30 127 
2	30 169 
2	30 170 
2	30 219 
2	30 220 
2	31 32 
2	31 98 
2	31 99 
2	31 182 
2	31 185 
2	31 218 
2	32 33 
2	32 66 
2	32 99 
2	32 218 
2	32 220 
2	33 66 
2	33 169 
2	33 220 
2	34 35 
2	34 37 
2	34 142 
2	34 144 
2	35 141 
2	35 142 
2	35 223 
2	36 37 
2	36 153 
2	37 144 
2	37 153 
2	38 39 
2	38 40 
2	38 120 
2	38 125 
2	39 40 
2	39 120 
2	39 121 
2	39 176 
2	40 70 
2	40 72 
2	40 125 
2	40 176 
2	40 179 
2	41 42 
2	41 43 
2	41 45 
2	41 188 
2	42 43 
2	42 44 
2	42 105 
2	42 162 
2	42 188 
2	42 189 
2	43 44 
2	43 45 
2	43 48 
2	43 49 
2	44 49 
2	44 162 
2	44 163 
2	45 48 
2	46 47 
2	46 48 
2	46 137 
2	47 48 
2	47 49 
2	47 134 
2	47 137 
2	48 49 
2	49 134 
2	49 154 
2	49 161 
2	49 163 
2	50 52 
2	50 53 
2	50 96 
2	50 150 
2	50 151 
2	51 52 
2	51 118 
2	51 153 
2	52 53 
2	52 114 
2	52 150 
2	52 153 
2	53 93 
2	53 96 
2	53 97 
2	53 114 
2	53 117 
2	54 55 
2	54 56 
2	54 58 
2	54 165 
2	54 167 
2	54 194 
2	55 58 
2	55 60 
2	55 165 
2	55 181 
2	56 58 
2	56 59 
2	56 191 
2	56 192 
2	57 58 
2	57 59 
2	57 60 
2	57 105 
2	57 106 
2	57 162 
2	57 228 
2	58 59 
2	58 60 
2	59 162 
2	59 163 
2	59 191 
2	60 181 
2	60 190 
2	60 228 
2	61 63 
2	61 65 
2	61 67 
2	62 65 
2	62 66 
2	62 168 
2	62 169 
2	62 170 
2	63 64 
2	63 65 
2	64 65 
2	64 66 
2	64 99 
2	65 66 
2	65 67 
2	65 168 
2	66 99 
2	66 169 
2	67 68 
2	67 69 
2	67 168 
2	68 69 
2	68 168 
2	70 71 
2	70 72 
2	70 179 
2	71 179 
2	71 199 
2	71 202 
2	72 125 
2	72 126 
2	73 74 
2	73 117 
2	73 119 
2	73 164 
2	73 167 
2	74 119 
2	74 164 
2	74 166 
2	75 76 
2	75 139 
2	75 148 
2	75 183 
2	76 138 
2	76 139 
2	76 148 
2	76 149 
2	77 78 
2	77 79 
2	77 140 
2	77 143 
2	77 198 
2	77 200 
2	77 201 
2	78 140 
2	78 198 
2	79 111 
2	79 143 
2	79 201 
2	80 81 
2	80 83 
2	80 84 
2	80 88 
2	81 82 
2	81 84 
2	81 215 
2	81 217 
2	82 84 
2	82 89 
2	82 215 
2	83 84 
2	83 87 
2	83 88 
2	83 89 
2	84 89 
2	85 86 
2	85 87 
2	85 88 
2	85 90 
2	86 88 
2	87 88 
2	87 89 
2	87 90 
2	91 92 
2	91 93 
2	91 94 
2	91 218 
2	91 220 
2	92 93 
2	92 115 
2	92 116 
2	92 218 
2	93 94 
2	93 97 
2	93 116 
2	93 117 
2	94 95 
2	94 97 
2	94 219 
2	94 220 
2	95 96 
2	95 97 
2	95 151 
2	95 152 
2	95 219 
2	96 97 
2	96 151 
2	98 99 
2	98 182 
2	98 184 
2	100 204 
2	100 206 
2	100 207 
2	100 210 
2	100 211 
2	101 102 
2	101 103 
2	101 104 
2	101 108 
2	102 103 
2	102 107 
2	102 108 
2	102 109 
2	103 104 
2	103 106 
2	103 107 
2	104 105 
2	104 106 
2	104 108 
2	104 186 
2	104 189 
2	105 106 
2	105 162 
2	105 189 
2	106 107 
2	106 228 
2	107 109 
2	107 226 
2	107 227 
2	107 228 
2	108 109 
2	108 145 
2	108 149 
2	108 186 
2	109 149 
2	109 225 
2	109 226 
2	110 111 
2	110 112 
2	110 201 
2	111 112 
2	111 141 
2	111 143 
2	111 201 
2	112 113 
2	112 141 
2	112 142 
2	113 142 
2	114 117 
2	114 118 
2	114 119 
2	115 116 
2	115 165 
2	115 181 
2	115 185 
2	116 117 
2	116 165 
2	116 167 
2	117 119 
2	117 167 
2	118 119 
2	118 166 
2	118 205 
2	119 166 
2	120 121 
2	121 123 
2	121 176 
2	121 178 
2	122 124 
2	122 156 
2	122 157 
2	122 214 
2	123 124 
2	123 178 
2	123 203 
2	123 211 
2	124 211 
2	124 213 
2	124 214 
2	125 126 
2	127 152 
2	127 219 
2	128 129 
2	128 130 
2	128 133 
2	128 156 
2	128 215 
2	128 216 
2	129 130 
2	129 131 
2	129 132 
2	129 133 
2	129 135 
2	129 136 
2	130 132 
2	130 216 
2	131 133 
2	131 134 
2	131 135 
2	131 155 
2	131 160 
2	132 136 
2	133 155 
2	133 156 
2	134 135 
2	134 137 
2	134 154 
2	134 160 
2	135 136 
2	135 137 
2	136 137 
2	138 139 
2	138 225 
2	139 183 
2	139 184 
2	139 225 
2	139 226 
2	140 143 
2	140 222 
2	140 224 
2	141 142 
2	141 143 
2	141 221 
2	141 223 
2	142 144 
2	143 221 
2	143 222 
2	144 153 
2	145 147 
2	145 149 
2	145 186 
2	145 230 
2	145 231 
2	146 147 
2	146 148 
2	146 172 
2	147 148 
2	147 149 
2	147 172 
2	147 173 
2	147 231 
2	148 149 
2	149 225 
2	150 151 
2	150 153 
2	151 152 
2	152 219 
2	154 158 
2	154 159 
2	154 160 
2	154 161 
2	154 192 
2	154 196 
2	155 156 
2	155 157 
2	155 159 
2	155 160 
2	156 157 
2	157 159 
2	157 195 
2	157 214 
2	158 161 
2	158 163 
2	158 191 
2	158 192 
2	159 160 
2	159 195 
2	159 196 
2	161 163 
2	162 163 
2	163 191 
2	164 166 
2	164 167 
2	164 193 
2	164 194 
2	164 197 
2	164 209 
2	165 167 
2	165 181 
2	166 204 
2	166 205 
2	166 209 
2	167 194 
2	168 170 
2	168 171 
2	169 170 
2	170 171 
2	172 173 
2	172 175 
2	173 174 
2	173 175 
2	173 231 
2	174 175 
2	174 229 
2	174 231 
2	174 232 
2	176 178 
2	176 179 
2	176 180 
2	177 178 
2	177 180 
2	177 203 
2	177 208 
2	177 210 
2	178 180 
2	178 203 
2	179 180 
2	179 199 
2	181 185 
2	181 190 
2	182 184 
2	182 185 
2	182 226 
2	182 227 
2	183 184 
2	184 226 
2	185 190 
2	185 218 
2	185 227 
2	186 187 
2	186 189 
2	186 230 
2	187 188 
2	187 189 
2	187 230 
2	187 232 
2	188 189 
2	190 227 
2	190 228 
2	192 194 
2	192 196 
2	192 197 
2	193 195 
2	193 197 
2	193 209 
2	193 212 
2	194 197 
2	195 196 
2	195 197 
2	195 212 
2	195 214 
2	196 197 
2	198 199 
2	198 200 
2	198 202 
2	199 200 
2	199 202 
2	200 201 
2	203 208 
2	203 211 
2	204 205 
2	204 206 
2	204 207 
2	204 209 
2	205 207 
2	206 209 
2	206 211 
2	206 212 
2	206 213 
2	207 210 
2	208 210 
2	208 211 
2	209 212 
2	210 211 
2	211 213 
2	212 213 
2	212 214 
2	213 214 
2	215 216 
2	215 217 
2	216 217 
2	218 220 
2	219 220 
2	221 222 
2	221 223 
2	222 224 
2	225 226 
2	226 227 
2	227 228 
2	229 230 
2	229 231 
2	229 232 
2	230 231 
2	230 232 
0	

2
 0.252912 1
2
 0.235916 1
2
 0.163081 1
2
 0.0600643 1
2
 0.156111 1
2
 0.302255 1
2
 0.670882 1
2
 0.384715 1
2
 0.312989 1
2
 0.135437 1
2
 0.175756 1
2
 0.198154 1
2
 0.139878 1
2
 0.057277 1
2
 0.0876348 1
2
 1 0.0392647
2
 1 0.968179
2
 1 0.0858721
2
 1 0.0670876
2
 1 0.0529542
2
 1 0.193273
2
 1 0.909168
2
 1 0.757687
2
 1 0.142985
2
 1 0.777653
2
 0.234131 1
2
 0.463085 1
2
 0.367049 1
2
 0.194774 1
2
 1 0.691848
2
 0.960925 1
2
 0.385033 1
2
 0.533254 1
2
 0.914259 1
2
 1 0.0987291
2
 1 0.105901
2
 1 0.0903979
2
 1 0.111854
2
 0.222128 1
2
 1 0.814712
2
 0.0633103 1
2
 1 0.186029
2
 1 0.54849
2
 1 0.26469
2
 1 0.232277
2
 1 0.21179
2
 1 0.0946323
2
 1 0.242804
2
 1 0.280831
2
 1 0.101697
2
 0.419316 1
2
 0.481456 1
2
 1 0.739885
2
 0.550825 1
2
 0.379556 1
2
 0.519786 1
2
 1 0.888485
2
 0.344532 1
2
 1 0.893224
2
 0.656853 1
2
 0.228472 1
2
 1 0.25408
2
 1 0.594299
2
 1 0.417288
2
 1 0.83581
2
 1 0.22213
2
 1 0.847125
2
 1 0.508437
2
 1 0.180163
2
 1 0.244695
2
 1 0.826919
2
 1 0.0848924
2
 1 0.856142
2
 1 0.502786
2
 0.532565 1
2
 1 0.441173
2
 1 0.962792
2
 1 0.158116
2
 1 0.151055
2
 1 0.283502
2
 1 0.108792
2
 1 0.0627195
2
 1 0.104479
2
 1 0.179651
2
 1 0.12805
2
 1 0.167643
2
 1 0.107413
2
 1 0.141203
2
 1 0.0890354
2
 1 0.18831
2
 1 0.226011
2
 1 0.709417
2
 1 0.268192
2
 0.696994 1
2
 1 0.406859
2
 1 0.070946
2
 1 0.130435
2
 1 0.473946
2
 0.102611 1
2
 1 0.839898
2
 1 0.651497
2
 0.201252 1
2
 0.128125 1
2
 0.0377422 1
2
 0.100878 1
2
 0.448687 1
2
 0.167024 1
2
 0.0989228 1
2
 0.861869 1
2
 0.166804 1
2
 0.203522 1
2
 0.812132 1
2
 0.928152 1
2
 0.38034 1
2
 0.123418 1
2
 0.0585524 1
2
 0.201882 1
2
 0.0911524 1
2
 0.14867 1
2
 0.164907 1
2
 0.180177 1
2
 0.103304 1
2
 0.106798 1
2
 0.275055 1
2
 0.056986 1
2
 0.268868 1
2
 0.977743 1
2
 0.527006 1
2
 1 0.436057
2
 1 0.392931
2
 1 0.174415
2
 1 0.817155
2
 1 0.139065
2
 1 0.443219
2
 1 0.401299
2
 1 0.285141
2
 1 0.172367
2
 1 0.149925
2
 0.568841 1
2
 0.858801 1
2
 1 0.460037
2
 0.573491 1
2
 0.683655 1
2
 0.667833 1
2
 1 0.665862
2
 1 0.112943
2
 1 0.166286
2
 1 0.168377
2
 1 0.650479
2
 0.564522 1
2
 0.54733 1
2
 0.531705 1
2
 0.409121 1
2
 0.642325 1
2
 0.535997 1
2
 0.489803 1
2
 0.380658 1
2
 0.532572 1
2
 0.0951802 1
2
 0.0897449 1
2
 0.240169 1
2
 0.617296 1
2
 0.386184 1
2
 0.686933 1
2
 0.374987 1
2
 0.102736 1
2
 0.307803 1
2
 0.177757 1
2
 1 0.357849
2
 0.951154 1
2
 1 0.668578
2
 1 0.502752
2
 1 0.21421
2
 1 0.282777
2
 0.643076 1
2
 0.805593 1
2
 0.250565 1
2
 0.328409 1
2
 0.233598 1
2
 0.26528 1
2
 1 0.75754
2
 0.332565 1
2
 0.252655 1
2
 0.214839 1
2
 0.0255934 1
2
 0.0295234 1
2
 1 0.413795
2
 1 0.396776
2
 1 0.175717
2
 1 0.293535
2
 0.0404082 1
2
 0.243942 1
2
 1 0.706464
2
 0.215737 1
2
 1 0.759158
2
 0.517421 1
2
 1 0.903094
2
 0.497242 1
2
 1 0.0492604
2
 1 0.461779
2
 1 0.270735
2
 1 0.301512
2
 1 0.0318866
2
 0.859382 1
2
 0.160801 1
2
 0.11853 1
2
 0.0922759 1
2
 0.0485381 1
2
 0.42168 1
2
 0.10177 1
2
 0.130917 1
2
 0.0743545 1
2
 0.0657264 1
2
 0.269302 1
2
 0.5546 1
2
 1 0.299703
2
 1 0.107847
2
 1 0.266146
2
 1 0.755286
2
 1 0.743943
2
 1 0.885206
2
 1 0.0499571
2
 1 0.0705332
2
 1 0.0357728
2
 1 0.100711
2
 0.0900902 1
2
 0.193375 1
2
 0.0805364 1
2
 0.0554133 1
2
 1 0.918769
2
 1 0.379373
2
 1 0.506063
2
 1 0.522876
4
 0.954987 0.258794 0.258794 1
4
 0.951455 0.254769 0.254769 1
4
 0.948415 0.252277 0.252277 1
4
 0.947722 0.254973 0.254973 1
4
 0.953433 0.259189 0.259189 1
4
 0.944959 0.251805 0.251805 1
4
 0.959126 0.259862 0.259862 1
4
 0.962363 0.261048 0.261048 1
4
 0.955578 0.25582 0.25582 1
4
 0.956867 0.254838 0.254838 1
4
 0.961715 0.259163 0.259163 1
4
 0.962524 0.263161 0.263161 1
4
 0.955739 0.257891 0.257891 1
4
 0.962632 0.265169 0.265169 1
4
 0.957725 0.262366 0.262366 1
4
 0.965123 0.262454 0.262454 1
4
 0.965881 0.266379 0.266379 1
4
 0.970775 0.267311 0.267311 1
4
 0.969739 0.268071 0.268071 1
4
 0.953488 0.252905 0.252905 1
4
 0.949161 0.251397 0.251397 1
4
 1 0.344488 0.344488 0.978747
4
 1 0.342651 0.342651 0.979241
4
 1 0.348761 0.348761 0.969067
4
 1 0.345586 0.345586 0.972064
4
 1 0.339701 0.339701 0.988523
4
 1 0.340755 0.340755 0.984037
4
 1 0.33789 0.33789 0.989022
4
 1 0.335337 0.335337 0.997108
4
 1 0.333714 0.333714 0.995261
4
 1 0.341841 0.341841 0.977318
4
 1 0.336475 0.336475 0.985972
4
 1 0.338253 0.338253 0.982104
4
 1 0.33475 0.33475 0.990745
4
 1 0.281697 0.281697 0.999506
4
 0.997802 0.278387 0.278387 1
4
 1 0.28448 0.28448 0.995418
4
 1 0.284593 0.284593 0.992404
4
 0.99926 0.278039 0.278039 1
4
 1 0.280499 0.280499 0.995976
4
 1 0.282951 0.282951 0.992738
4
 0.995172 0.277412 0.277412 1
4
 1 0.284232 0.284232 0.998048
4
 0.996233 0.280808 0.280808 1
4
 0.992437 0.276644 0.276644 1
4
 0.987657 0.26982 0.26982 1
4
 0.989766 0.273259 0.273259 1
4
 0.993944 0.273675 0.273675 1
4
 1 0.289487 0.289487 0.992126
4
 1 0.295935 0.295935 0.985963
4
 1 0.292611 0.292611 0.985685
4
 1 0.2943 0.2943 0.985132
4
 1 0.28708 0.28708 0.997825
4
 1 0.293797 0.293797 0.990569
4
 1 0.291023 0.291023 0.994134
4
 1 0.287154 0.287154 0.990956
4
 1 0.290138 0.290138 0.987513
4
 1 0.284654 0.284654 0.999675
4
 1 0.326588 0.326588 0.953516
4
 1 0.321161 0.321161 0.955713
4
 1 0.322733 0.322733 0.957701
4
 1 0.3429 0.3429 0.947807
4
 1 0.342908 0.342908 0.953466
4
 1 0.342506 0.342506 0.951219
4
 1 0.34646 0.34646 0.949939
4
 1 0.348411 0.348411 0.945734
4
 1 0.337445 0.337445 0.949244
4
 1 0.339823 0.339823 0.951593
4
 1 0.33731 0.33731 0.952127
4
 1 0.331972 0.331972 0.951377
4
 1 0.331287 0.331287 0.954267
4
 1 0.334564 0.334564 0.953196
4
 1 0.325382 0.325382 0.956626
4
 1 0.32859 0.32859 0.955338
4
 1 0.306651 0.306651 0.975556
4
 1 0.303906 0.303906 0.976761
4
 1 0.304898 0.304898 0.973421
4
 1 0.309721 0.309721 0.972439
4
 1 0.308036 0.308036 0.969385
4
 1 0.311445 0.311445 0.9677
4
 1 0.302679 0.302679 0.980443
4
 1 0.308471 0.308471 0.976104
4
 1 0.305437 0.305437 0.982593
4
 1 0.30296 0.30296 0.983918
4
 1 0.300949 0.300949 0.978298
4
 1 0.298312 0.298312 0.980827
4
 1 0.300247 0.300247 0.985134
4
 1 0.297803 0.297803 0.98624
4
 1 0.299286 0.299286 0.977473
4
 1 0.301691 0.301691 0.972382
4
 1 0.305039 0.305039 0.97091
4
 0.952579 0.248831 0.248831 1
4
 0.948576 0.24598 0.24598 1
4
 0.94895 0.243512 0.243512 1
4
 0.95558 0.249502 0.249502 1
4
 0.943636 0.241537 0.241537 1
4
 0.954615 0.247423 0.247423 1
4
 0.950441 0.250432 0.250432 1
4
 0.950762 0.249047 0.249047 1
4
 0.959611 0.25621 0.25621 1
4
 0.957782 0.252613 0.252613 1
4
 0.959881 0.255525 0.255525 1
4
 0.946447 0.247562 0.247562 1
4
 0.942522 0.246888 0.246888 1
4
 0.942682 0.245181 0.245181 1
4
 0.942681 0.248473 0.248473 1
4
 0.941836 0.241746 0.241746 1
4
 0.943 0.243824 0.243824 1
4
 0.964744 0.259862 0.259862 1
4
 0.968924 0.263119 0.263119 1
4
 0.942207 0.239321 0.239321 1
4
 0.942842 0.238264 0.238264 1
4
 0.953169 0.245153 0.245153 1
4
 0.95226 0.243629 0.243629 1
4
 1 0.33823 0.33823 0.964721
4
 1 0.339831 0.339831 0.957274
4
 1 0.341131 0.341131 0.960505
4
 1 0.343754 0.343754 0.955986
4
 1 0.337217 0.337217 0.961368
4
 1 0.335773 0.335773 0.96613
4
 1 0.330751 0.330751 0.982654
4
 1 0.331382 0.331382 0.987134
4
 1 0.333133 0.333133 0.983262
4
 1 0.327593 0.327593 0.991188
4
 1 0.324905 0.324905 0.991856
4
 1 0.327216 0.327216 0.986136
4
 1 0.334497 0.334497 0.974193
4
 1 0.336619 0.336619 0.974686
4
 1 0.335156 0.335156 0.979075
4
 1 0.329203 0.329203 0.981937
4
 1 0.332066 0.332066 0.975616
4
 1 0.338376 0.338376 0.970426
4
 1 0.339127 0.339127 0.965697
4
 1 0.333799 0.333799 0.971352
4
 1 0.305298 0.305298 0.962604
4
 1 0.310341 0.310341 0.960661
4
 1 0.304553 0.304553 0.965798
4
 1 0.307933 0.307933 0.964336
4
 1 0.298993 0.298993 0.968023
4
 1 0.302187 0.302187 0.966611
4
 1 0.300337 0.300337 0.96455
4
 1 0.315704 0.315704 0.958183
4
 1 0.316721 0.316721 0.960177
4
 1 0.310588 0.310588 0.9632
4
 1 0.314024 0.314024 0.961525
4
 0.96507 0.256707 0.256707 1
4
 0.964691 0.255021 0.255021 1
4
 0.962905 0.256214 0.256214 1
4
 0.959828 0.251183 0.251183 1
4
 0.96898 0.258458 0.258458 1
4
 0.967185 0.259666 0.259666 1
4
 0.971376 0.262921 0.262921 1
4
 0.973451 0.262306 0.262306 1
4
 0.972305 0.257601 0.257601 1
4
 0.967947 0.254907 0.254907 1
4
 0.963717 0.252896 0.252896 1
4
 0.973069 0.260583 0.260583 1
4
 0.975696 0.261185 0.261185 1
4
 0.949954 0.278395 0.278395 1
4
 0.946175 0.274341 0.274341 1
4
 0.94167 0.270841 0.270841 1
4
 0.94421 0.275571 0.275571 1
4
 0.953 0.279275 0.279275 1
4
 0.95686 0.281649 0.281649 1
4
 0.962734 0.288009 0.288009 1
4
 0.962086 0.285929 0.285929 1
4
 0.951021 0.280527 0.280527 1
4
 0.95686 0.284955 0.284955 1
4
 0.953054 0.277548 0.277548 1
4
 0.944689 0.271698 0.271698 1
4
 0.945273 0.270823 0.270823 1
4
 0.951557 0.274873 0.274873 1
4
 0.955412 0.27721 0.27721 1
4
 0.962141 0.284161 0.284161 1
4
 0.961385 0.282317 0.282317 1
4
 0.940772 0.267368 0.267368 1
4
 0.942041 0.264131 0.264131 1
4
 0.939136 0.263543 0.263543 1
4
 0.936977 0.259431 0.259431 1
4
 0.944265 0.267103 0.267103 1
4
 0.950543 0.271097 0.271097 1
4
 0.94921 0.267964 0.267964 1
4
 0.942095 0.262935 0.262935 1
4
 0.947611 0.270494 0.270494 1
4
 0.952573 0.271366 0.271366 1
4
 0.958475 0.275778 0.275778 1
4
 0.958583 0.277418 0.277418 1
4
 0.959875 0.279597 0.279597 1
4
 1 0.31806 0.31806 0.968897
4
 1 0.319205 0.319205 0.97064
4
 1 0.322876 0.322876 0.966236
4
 1 0.321272 0.321272 0.963581
4
 1 0.324439 0.324439 0.962283
4
 1 0.313347 0.313347 0.972221
4
 1 0.308494 0.308494 0.979454
4
 1 0.313293 0.313293 0.968244
4
 1 0.316279 0.316279 0.973205
4
 1 0.313549 0.313549 0.976599
4
 1 0.318327 0.318327 0.966127
4
 1 0.315091 0.315091 0.967483
4
 1 0.318122 0.318122 0.978686
4
 1 0.321068 0.321068 0.970532
4
 1 0.319662 0.319662 0.974683
4
 1 0.314678 0.314678 0.978356
4
 1 0.315057 0.315057 0.980886
4
 0.989759 0.302008 0.302008 1
4
 0.983113 0.295306 0.295306 1
4
 0.985876 0.299242 0.299242 1
4
 0.993936 0.304492 0.304492 1
4
 0.993546 0.302492 0.302492 1
4
 0.987761 0.296995 0.296995 1
4
 0.987483 0.302294 0.302294 1
4
 0.990982 0.306642 0.306642 1
4
 0.995556 0.307597 0.307597 1
4
 0.995611 0.309799 0.309799 1
4
 0.980852 0.295585 0.295585 1
4
 0.977168 0.292798 0.292798 1
4
 0.97536 0.29027 0.29027 1
4
 0.977224 0.289535 0.289535 1
4
 0.981512 0.299727 0.299727 1
4
 0.977826 0.296901 0.296901 1
4
 0.98499 0.304039 0.304039 1
4
 0.974044 0.296288 0.296288 1
4
 0.978759 0.301259 0.301259 1
4
 0.973389 0.294149 0.294149 1
4
 0.983331 0.30436 0.30436 1
4
 0.979915 0.296701 0.296701 1
4
 0.987094 0.303834 0.303834 1
4
 0.971805 0.291179 0.291179 1
4
 0.971042 0.28929 0.28929 1
4
 0.974429 0.291365 0.291365 1
4
 0.995219 0.311378 0.311378 1
4
 0.992986 0.311298 0.311298 1
4
 0.988924 0.308531 0.308531 1
4
 1 0.353253 0.353253 0.959861
4
 1 0.352938 0.352938 0.956686
4
 1 0.356827 0.356827 0.95197
4
 1 0.348494 0.348494 0.958352
4
 1 0.343496 0.343496 0.964885
4
 1 0.350354 0.350354 0.952183
4
 1 0.344257 0.344257 0.960182
4
 1 0.346904 0.346904 0.955664
4
 1 0.347936 0.347936 0.967164
4
 1 0.350818 0.350818 0.960993
4
 1 0.347625 0.347625 0.963965
4
 1 0.34264 0.34264 0.970536
4
 1 0.341151 0.341151 0.974906
4
 1 0.345478 0.345478 0.964343
4
 1 0.354368 0.354368 0.953093
4
 1 0.352376 0.352376 0.951649
4
 1 0.339043 0.339043 0.975289
4
 1 0.341279 0.341279 0.966186
4
 1 0.358697 0.358697 0.945205
4
 1 0.361039 0.361039 0.944145
4
 1 0.35626 0.35626 0.946958
4
 1 0.361467 0.361467 0.940969
4
 1 0.356681 0.356681 0.943773
4
 0.980695 0.261348 0.261348 1
4
 0.971651 0.255741 0.255741 1
4
 0.979429 0.262041 0.262041 1
4
 0.984115 0.264985 0.264985 1
4
 0.990379 0.268771 0.268771 1
4
 0.98999 0.267006 0.267006 1
4
 0.963068 0.25107 0.25107 1
4
 0.96215 0.249509 0.249509 1
4
 1 0.304801 0.304801 0.996933
4
 1 0.309685 0.309685 0.991574
4
 1 0.306672 0.306672 0.993134
4
 0.998973 0.302516 0.302516 1
4
 1 0.306533 0.306533 0.99867
4
 1 0.304787 0.304787 0.993747
4
 0.998357 0.300471 0.300471 1
4
 1 0.301066 0.301066 0.998165
4
 0.989865 0.32584 0.32584 1
4
 0.993596 0.327847 0.327847 1
4
 0.986424 0.324059 0.324059 1
4
 0.995606 0.331164 0.331164 1
4
 0.988366 0.322313 0.322313 1
4
 0.991534 0.324953 0.324953 1
4
 0.984377 0.321199 0.321199 1
4
 0.982776 0.317956 0.317956 1
4
 1 0.279309 0.279309 0.986789
4
 1 0.28352 0.28352 0.983637
4
 1 0.281802 0.281802 0.981981
4
 1 0.285046 0.285046 0.980439
4
 1 0.277982 0.277982 0.991288
4
 1 0.280149 0.280149 0.990231
4
 1 0.282597 0.282597 0.987012
4
 1 0.279869 0.279869 0.98336
4
 1 0.276074 0.276074 0.99268
4
 1 0.288057 0.288057 0.981045
4
 1 0.287358 0.287358 0.978679
4
 1 0.28489 0.28489 0.98524
4
 0.925478 0.234991 0.234991 1
4
 0.927039 0.233961 0.233961 1
4
 0.92782 0.235599 0.235599 1
4
 0.923714 0.230921 0.230921 1
4
 0.933096 0.241228 0.241228 1
4
 0.929645 0.238269 0.238269 1
4
 0.933253 0.242776 0.242776 1
4
 0.927767 0.239049 0.239049 1
4
 0.935457 0.241851 0.241851 1
4
 0.939089 0.243161 0.243161 1
4
 0.939088 0.246426 0.246426 1
4
 0.931213 0.237224 0.237224 1
4
 0.933674 0.236476 0.236476 1
4
 0.927092 0.232514 0.232514 1
4
 0.934828 0.238509 0.238509 1
4
 0.935615 0.240178 0.240178 1
4
 0.924961 0.227745 0.227745 1
4
 0.933203 0.233924 0.233924 1
4
 0.926624 0.230005 0.230005 1
4
 0.933833 0.232891 0.232891 1
4
 0.922108 0.227238 0.227238 1
4
 0.930325 0.233403 0.233403 1
4
 0.938088 0.239421 0.239421 1
4
 0.937563 0.236332 0.236332 1
4
 1 0.322898 0.322898 0.983646
4
 1 0.321708 0.321708 0.981218
4
 1 0.326063 0.326063 0.976273
4
 1 0.325149 0.325149 0.982708
4
 1 0.327977 0.327977 0.976383
4
 1 0.320007 0.320007 0.984861
4
 1 0.319732 0.319732 0.990408
4
 1 0.317955 0.317955 0.989351
4
 1 0.32343 0.32343 0.986357
4
 1 0.323144 0.323144 0.977479
4
 1 0.320372 0.320372 0.978412
4
 1 0.316784 0.316784 0.986909
4
 1 0.315756 0.315756 0.984639
4
 1 0.328276 0.328276 0.968464
4
 1 0.324708 0.324708 0.97348
4
 1 0.330857 0.330857 0.967867
4
 1 0.32944 0.32944 0.972662
4
 1 0.326891 0.326891 0.965261
4
 1 0.32546 0.32546 0.969389
4
 1 0.328474 0.328474 0.961312
4
 1 0.331723 0.331723 0.960234
4
 1 0.331623 0.331623 0.963799
4
 1 0.323338 0.323338 0.97026
4
 1 0.326332 0.326332 0.962176
4
 1 0.335795 0.335795 0.983538
4
 1 0.330211 0.330211 0.991467
4
 1 0.332317 0.332317 0.992192
4
 1 0.293327 0.293327 0.999677
4
 0.994889 0.288547 0.288547 1
4
 1 0.293295 0.293295 0.996035
4
 1 0.290526 0.290526 0.99962
4
 0.993104 0.285712 0.285712 1
4
 0.976068 0.305985 0.305985 1
4
 0.975028 0.3038 0.3038 1
4
 0.969895 0.299171 0.299171 1
4
 0.970984 0.302469 0.302469 1
4
 0.978923 0.307263 0.307263 1
4
 0.983606 0.311234 0.311234 1
4
 0.974863 0.305917 0.305917 1
4
 0.981619 0.311733 0.311733 1
4
 0.972731 0.30042 0.30042 1
4
 0.977989 0.303829 0.303829 1
4
 0.982558 0.309011 0.309011 1
4
 0.968155 0.294262 0.294262 1
4
 0.972841 0.299199 0.299199 1
4
 0.968698 0.299104 0.299104 1
4
 0.963923 0.293895 0.293895 1
4
 0.962247 0.291142 0.291142 1
4
 0.973388 0.297602 0.297602 1
4
 0.968047 0.290578 0.290578 1
4
 0.962788 0.289587 0.289587 1
4
 0.982668 0.307756 0.307756 1
4
 0.982669 0.30571 0.30571 1
4
 0.985264 0.313507 0.313507 1
4
 0.991257 0.317777 0.317777 1
4
 0.99098 0.315458 0.315458 1
4
 0.987259 0.310924 0.310924 1
4
 0.976506 0.308151 0.308151 1
4
 0.967718 0.301598 0.301598 1
4
 0.973768 0.307668 0.307668 1
4
 0.965006 0.297135 0.297135 1
4
 0.980517 0.313517 0.313517 1
4
 0.985319 0.316278 0.316278 1
4
 0.989255 0.318287 0.318287 1
4
 1 0.288787 0.288787 0.98408
4
 1 0.290253 0.290253 0.984523
4
 1 0.285611 0.285611 0.988288
4
 1 0.291787 0.291787 0.980661
4
 1 0.292702 0.292702 0.976429
4
 1 0.289608 0.289608 0.977855
4
 1 0.28712 0.28712 0.984411
4
 1 0.294962 0.294962 0.980551
4
 1 0.294189 0.294189 0.976869
4
 1 0.297332 0.297332 0.975444
4
 1 0.299048 0.299048 0.974897
4
 1 0.312338 0.312338 0.984307
4
 1 0.308694 0.308694 0.983864
4
 1 0.309299 0.309299 0.985855
4
 1 0.316512 0.316512 0.992467
4
 1 0.314215 0.314215 0.996879
4
 1 0.316447 0.316447 0.996824
4
 1 0.319687 0.319687 0.995202
4
 1 0.313732 0.313732 0.989128
4
 1 0.312469 0.312469 0.995816
4
 1 0.310539 0.310539 0.996207
4
 1 0.309672 0.309672 0.988405
4
 1 0.309532 0.309532 0.993915
4
 1 0.306059 0.306059 0.98796
4
 1 0.302322 0.302322 0.992352
4
 1 0.302983 0.302983 0.987294
4
 1 0.302914 0.302914 0.994361
4
 0.969196 0.262415 0.262415 1
4
 0.974599 0.267989 0.267989 1
4
 0.975476 0.265083 0.265083 1
4
 0.977723 0.268388 0.268388 1
4
 0.969848 0.270115 0.270115 1
4
 0.961065 0.265573 0.265573 1
4
 0.966965 0.270666 0.270666 1
4
 0.971046 0.272892 0.272892 1
4
 0.974762 0.271061 0.271061 1
4
 0.978932 0.270696 0.270696 1
4
 0.980472 0.273329 0.273329 1
4
 0.981628 0.275551 0.275551 1
4
 0.980581 0.276334 0.276334 1
4
 0.977337 0.275207 0.275207 1
4
 0.974925 0.274625 0.274625 1
4
 0.957945 0.247542 0.247542 1
4
 1 0.336923 0.336923 0.955555
4
 1 0.336821 0.336821 0.959103
4
 0.942944 0.254932 0.254932 1
4
 0.938665 0.250891 0.250891 1
4
 0.946392 0.256692 0.256692 1
4
 0.950439 0.258492 0.258492 1
4
 0.941992 0.251128 0.251128 1
4
 0.937717 0.249215 0.249215 1
4
 0.936874 0.251527 0.251527 1
4
 0.945647 0.259747 0.259747 1
4
 0.936611 0.252622 0.252622 1
4
 0.944586 0.257343 0.257343 1
4
 0.94199 0.257917 0.257917 1
4
 0.937452 0.254508 0.254508 1
4
 0.932361 0.248617 0.248617 1
4
 0.931681 0.245886 0.245886 1
4
 0.949105 0.261539 0.261539 1
4
 0.950704 0.266098 0.266098 1
4
 0.946497 0.262122 0.262122 1
4
 0.954128 0.265586 0.265586 1
4
 0.954395 0.267539 0.267539 1
4
 0.932936 0.251563 0.251563 1
4
 0.953057 0.263128 0.263128 1
4
 0.952095 0.260936 0.260936 1
4
 0.947028 0.264223 0.264223 1
4
 0.944107 0.263196 0.263196 1
4
 0.957131 0.272591 0.272591 1
4
 0.954931 0.269683 0.269683 1
4
 0.938294 0.256836 0.256836 1
4
 0.939929 0.259264 0.259264 1
4
 0.935401 0.255838 0.255838 1
4
 0.992091 0.324298 0.324298 1
4
 0.988144 0.320109 0.320109 1
4
 0.997285 0.330263 0.330263 1
4
 0.999135 0.329274 0.329274 1
4
 0.991312 0.322731 0.322731 1
4
 0.995272 0.324781 0.324781 1
4
 1 0.285616 0.285616 0.977031
4
 1 0.285272 0.285272 0.97451
4
 1 0.283065 0.283065 0.97555
4
 1 0.298264 0.298264 0.971235
4
 1 0.291991 0.291991 0.974074
4
 1 0.294033 0.294033 0.970471
4
 1 0.296437 0.296437 0.969165
4
 1 0.304796 0.304796 0.968351
4
 1 0.290925 0.290925 0.971888
4
 1 0.288556 0.288556 0.97298
4
 1 0.311588 0.311588 0.965203
4
 0.967229 0.303864 0.303864 1
4
 0.971693 0.30685 0.30685 1
4
 0.962949 0.296345 0.296345 1
4
 0.960842 0.295913 0.295913 1
4
 0.961813 0.2984 0.2984 1
4
 0.970002 0.309602 0.309602 1
4
 0.976066 0.315833 0.315833 1
4
 0.966359 0.308735 0.308735 1
4
 0.974861 0.313141 0.313141 1
4
 0.973276 0.30998 0.30998 1
4
 0.965166 0.306104 0.306104 1
4
 0.963704 0.303295 0.303295 1
4
 0.96338 0.301443 0.301443 1
4
 0.979361 0.316218 0.316218 1
4
 0.982556 0.315782 0.315782 1
4
 1 0.324711 0.324711 0.959531
4
 1 0.318272 0.318272 0.962174
4
 1 0.331156 0.331156 0.957165
4
 1 0.334331 0.334331 0.959641
4
 0.966528 0.28067 0.28067 1
4
 0.964469 0.276215 0.276215 1
4
 0.960847 0.274068 0.274068 1
4
 0.963169 0.278671 0.278671 1
4
 0.969681 0.282159 0.282159 1
4
 0.968539 0.279884 0.279884 1
4
 0.957133 0.264974 0.264974 1
4
 0.963009 0.270055 0.270055 1
4
 0.961982 0.271274 0.271274 1
4
 0.958369 0.269165 0.269165 1
4
 0.962037 0.267805 0.267805 1
4
 0.96691 0.274173 0.274173 1
4
 0.971536 0.276791 0.276791 1
4
 0.972028 0.275185 0.275185 1
4
 0.966636 0.28234 0.28234 1
4
 0.96794 0.284557 0.284557 1
4
 0.971315 0.286599 0.286599 1
4
 0.973172 0.285874 0.285874 1
4
 0.962251 0.273269 0.273269 1
4
 0.9705 0.278041 0.278041 1
4
 0.969954 0.279068 0.279068 1
4
 0.964576 0.28253 0.28253 1
4
 0.966635 0.286608 0.286608 1
4
 0.969245 0.286792 0.286792 1
4
 0.997741 0.298441 0.298441 1
4
 0.99662 0.301654 0.301654 1
4
 0.989984 0.292647 0.292647 1
4
 0.990817 0.296173 0.296173 1
4
 0.989428 0.293728 0.293728 1
4
 0.993939 0.294506 0.294506 1
4
 0.999365 0.30809 0.30809 1
4
 0.999813 0.312347 0.312347 1
4
 1 0.297461 0.297461 0.998444
4
 1 0.29987 0.29987 0.99369
4
 0.997405 0.295631 0.295631 1
4
 0.993156 0.300506 0.300506 1
4
 1 0.350769 0.350769 0.94898
4
 1 0.352744 0.352744 0.94478
4
 1 0.344665 0.344665 0.956953
4
 1 0.34927 0.34927 0.948234
4
 0.960085 0.302446 0.302446 1
4
 0.956802 0.301434 0.301434 1
4
 0.953585 0.295104 0.295104 1
4
 0.955353 0.298668 0.298668 1
4
 0.958309 0.297841 0.297841 1
4
 0.950324 0.294117 0.294117 1
4
 0.949258 0.289941 0.289941 1
4
 0.953264 0.293302 0.293302 1
4
 0.947501 0.286959 0.286959 1
4
 0.979812 0.267761 0.267761 1
4
 0.980198 0.265074 0.265074 1
4
 0.982292 0.268453 0.268453 1
4
 0.988321 0.275891 0.275891 1
4
 0.990822 0.276604 0.276604 1
4
 0.989876 0.278575 0.278575 1
4
 0.994779 0.282098 0.282098 1
4
 0.998304 0.28568 0.28568 1
4
 0.984555 0.2718 0.2718 1
4
 0.983615 0.273737 0.273737 1
4
 0.984943 0.269073 0.269073 1
4
 0.9891 0.269483 0.269483 1
4
 1 0.317846 0.317846 0.998505
4
 0.997625 0.314503 0.314503 1
4
 1 0.328518 0.328518 0.996267
4
 1 0.323757 0.323757 0.99621
4
 0.999866 0.32525 0.32525 1
4
 0.999586 0.322876 0.322876 1
4
 1 0.332221 0.332221 0.998844
4
 0.999136 0.327085 0.327085 1
4
 0.99925 0.318241 0.318241 1
4
 1 0.323385 0.323385 0.991132
4
 0.998913 0.320011 0.320011 1
4
 0.954283 0.287156 0.287156 1
4
 0.95858 0.289226 0.289226 1
4
 0.958149 0.291535 0.291535 1
4
 0.946811 0.280046 0.280046 1
4
 0.952624 0.284467 0.284467 1
4
 0.952195 0.286738 0.286738 1
4
 0.947396 0.282894 0.282894 1
4
 0.951074 0.282065 0.282065 1
4
 0.995051 0.316171 0.316171 1
4
 0.991314 0.311628 0.311628 1
4
 0.981845 0.291192 0.291192 1
4
 0.975197 0.285073 0.285073 1
4
 0.980468 0.288789 0.288789 1
4
 0.980414 0.284356 0.284356 1
4
 0.985159 0.289127 0.289127 1
4
 0.989651 0.289892 0.289892 1
4
 0.984662 0.286006 0.286006 1
4
 0.985989 0.29261 0.29261 1
4
 0.974595 0.281733 0.281733 1
4
 0.979863 0.285406 0.285406 1
4
 0.979369 0.282325 0.282325 1
4
 0.975636 0.279068 0.279068 1
4
 0.979313 0.28646 0.28646 1
4
 0.999092 0.27443 0.27443 1
4
 1 0.276904 0.276904 0.996143
4
 0.9987 0.272628 0.272628 1
4
 1 0.276821 0.276821 0.999842
4
 0.995006 0.271538 0.271538 1
4
 1 0.281502 0.281502 0.991846
4
 0.990042 0.279896 0.279896 1
4
 0.986324 0.278647 0.278647 1
4
 1 0.298111 0.298111 0.993355
4
 0.996454 0.291355 0.291355 1
4
 1 0.295684 0.295684 0.994471
4
 0.997742 0.293996 0.293996 1
4
 1 0.298079 0.298079 0.989735
4
 0.992322 0.289112 0.289112 1
4
 0.989263 0.2837 0.2837 1
4
 0.98732 0.285236 0.285236 1
4
 0.985991 0.282542 0.282542 1
4
 1 0.29286 0.29286 0.994414
4
 0.998472 0.287034 0.287034 1
4
 0.99121 0.282171 0.282171 1
4
 0.988596 0.287822 0.287822 1
4
 0.994723 0.285753 0.285753 1
4
 0.984221 0.279766 0.279766 1
4
 0.982288 0.281282 0.281282 1
4
 0.979864 0.280687 0.280687 1
4
 0.978545 0.278036 0.278036 1
4
 0.934983 0.246118 0.246118 1
4
 0.933725 0.2442 0.2442 1
4
 0.929487 0.24234 0.24234 1
4
 1 0.328517 0.328517 0.979073
4
 1 0.332799 0.332799 0.967976
4
 1 0.290574 0.290574 0.969381
4
 1 0.295355 0.295355 0.96699
4
 1 0.285979 0.285979 0.971505
4
 0.991312 0.320586 0.320586 1
4
 0.994994 0.320268 0.320268 1
4
 0.99098 0.313361 0.313361 1
4
 0.952997 0.290192 0.290192 1
4
 0.95396 0.292631 0.292631 1
4
 0.948193 0.286302 0.286302 1
4
 0.957019 0.293556 0.293556 1
4
 0.951233 0.287207 0.287207 1
1
 1

